letting n =  10
letting blocks =  [[1, 1], [1, 5], [1, 10], [2, 2], [3, 4], [3, 5], [3, 7], [3, 8], [4, 5], [4, 9], [4, 10], [5, 4], [5, 6], [5, 7], [5, 8], [6, 5], [6, 10], [7, 1], [7, 5], [7, 7], [8, 1], [8, 3], [8, 4], [8, 10], [9, 4], [9, 7], [9, 8], [9, 9], [9, 10], [10, 2]]
